(declare-const v0 Bool)
(declare-const v1 Bool)
(declare-const v2 Bool)
(declare-const v3 Bool)
(declare-const v4 Bool)
(assert (edge (or (not v1) (not v0)) (or v2 v3 v4)))
(assert (edge (or v1 v4 (not v0)) (or v1 (not v4))))
(assert (edge (or v0 v2 v4) (or v3 v4 (not v0))))
(assert (edge true (or v0 v1)))
(assert (edge (or v2 v3) true))
(assert (not (edge (not v3) true)))